data/solutions/recovery/degenerate/intermediate/binding/degenerate_intermediate_instance31/4.sol
Elapsed time: 0.04
Upper bound: 15763784.0
Planning weighted value: 2.10319421365e+11
C[0]=15763784.0
C[1]=15559708.0
C[2]=15426656.0
C[3]=15134222.0
C[4]=14500591.0
C[5]=13396126.0
C[6]=12667843.0
C[7]=12648168.0
C[8]=12386408.0
C[9]=12273820.0
C[10]=11936622.0
C[11]=11240252.0
C[12]=11071143.0
C[13]=10285857.0
y[0]=1
y[1]=6
y[2]=4
y[3]=0
y[4]=9
y[5]=9
y[6]=12
y[7]=7
y[8]=5
y[9]=2
y[10]=8
y[11]=3
y[12]=2
y[13]=7
y[14]=8
y[15]=7
y[16]=8
y[17]=2
y[18]=5
y[19]=10
y[20]=7
y[21]=0
y[22]=7
y[23]=2
y[24]=3
y[25]=13
y[26]=8
y[27]=10
y[28]=0
y[29]=11
y[30]=12
y[31]=0
y[32]=0
y[33]=13
y[34]=9
y[35]=6
y[36]=5
y[37]=10
y[38]=3
y[39]=10
y[40]=0
y[41]=4
y[42]=6
y[43]=13
y[44]=5
y[45]=11
y[46]=13
y[47]=1
y[48]=0
y[49]=0
y[50]=11
y[51]=0
y[52]=12
y[53]=0
y[54]=9
y[55]=4
y[56]=12
y[57]=10
y[58]=11
y[59]=13
y[60]=6
y[61]=11
y[62]=0
y[63]=7
y[64]=8
y[65]=8
y[66]=0
y[67]=11
y[68]=10
y[69]=0
y[70]=11
y[71]=10
y[72]=1
y[73]=13
y[74]=5
y[75]=3
y[76]=1
y[77]=7
y[78]=2
y[79]=0
