data/solutions/recovery/degenerate/intermediate/binding/degenerate_intermediate_instance31/4.log

Log started (V12.6.3.0) Sun Apr 22 12:33:51 2018

New value for default parallel thread count: 1

Problem '/tmp/tmpuRErgs.pyomo.lp' read.
Read time = 0.02 sec. (1.11 ticks)

Problem name         : /tmp/tmpuRErgs.pyomo.lp
Objective sense      : Minimize
Variables            :    1136  [Nneg: 1,  Binary: 1120,  General Integer: 15]
Objective nonzeros   :       1
Linear constraints   :     189  [Less: 94,  Equal: 95]
  Nonzeros           :   80213
  RHS nonzeros       :      81

Variables            : Min LB: 0.000000         Max UB: 1.000000       
Objective nonzeros   : Min   : 1.000000         Max   : 1.000000       
Linear constraints   :
  Nonzeros           : Min   : 1.000000         Max   : 8036379.       
  RHS nonzeros       : Min   : 1.000000         Max   : 1.000000       
Tried aggregator 2 times.
MIP Presolve eliminated 156 rows and 1051 columns.
Aggregator did 14 substitutions.
Reduced MIP has 19 rows, 71 columns, and 154 nonzeros.
Reduced MIP has 70 binaries, 1 generals, 0 SOSs, and 0 indicators.
Presolve time = 0.00 sec. (4.83 ticks)
Found incumbent of value 3.4489642e+07 after 0.01 sec. (6.76 ticks)
Probing time = 0.00 sec. (0.10 ticks)
Cover probing fixed 0 vars, tightened 4 bounds.
Tried aggregator 1 time.
Reduced MIP has 19 rows, 71 columns, and 154 nonzeros.
Reduced MIP has 70 binaries, 1 generals, 0 SOSs, and 0 indicators.
Presolve time = 0.00 sec. (0.11 ticks)
Probing time = 0.00 sec. (0.10 ticks)
Clique table members: 5.
MIP emphasis: balance optimality and feasibility.
MIP search method: dynamic search.
Parallel mode: none, using 1 thread.
Root relaxation solution time = 0.00 sec. (0.05 ticks)

        Nodes                                         Cuts/
   Node  Left     Objective  IInf  Best Integer    Best Bound    ItCnt     Gap

*     0+    0                       3.44896e+07   1.57638e+07            54.29%
      0     0   1.57638e+07     9   3.44896e+07   1.57638e+07        8   54.29%
*     0+    0                       2.02382e+07   1.57638e+07            22.11%
      0     0   1.57638e+07     9   2.02382e+07      Fract: 6       16   22.11%
*     0+    0                       1.79533e+07   1.57638e+07            12.20%
      0     0   1.57638e+07     7   1.79533e+07       Cuts: 4       24   12.20%
*     0+    0                       1.57638e+07   1.57638e+07             0.00%
      0     0        cutoff         1.57638e+07   1.57638e+07       24    0.00%
Elapsed time = 0.01 sec. (7.77 ticks, tree = 0.01 MB, solutions = 3)

Clique cuts applied:  1
Gomory fractional cuts applied:  5

Root node processing (before b&c):
  Real time             =    0.01 sec. (7.82 ticks)
Sequential b&c:
  Real time             =    0.00 sec. (0.00 ticks)
                          ------------
Total (root+branch&cut) =    0.01 sec. (7.82 ticks)

Solution pool: 3 solutions saved.

MIP - Integer optimal solution:  Objective =  1.5763784000e+07
Solution time =    0.01 sec.  Iterations = 24  Nodes = 0
Deterministic time = 7.82 ticks  (987.85 ticks/sec)


Incumbent solution written to file '/tmp/tmp6OjL4T.cplex.sol'.
